0 60 60
1 56 65
2 32 66
3 59 65
4 30 62
5 51 61
6 39 61
7 47 57
8 51 56
9 50 55
10 31 60
11 48 58
12 37 55
13 52 53
14 46 50
15 29 50
16 42 51
17 41 48
18 44 48
19 40 51
20 41 47
21 46 46
22 39 42
23 42 41
24 37 44
25 28 42
26 32 41
27 38 40
28 30 41
29 28 36
30 26 36
31 27 34
32 28 35
33 10 33
34 27 29
35 16 26
36 26 27
37 23 27
38 19 26
39 23 24
40 6 23
41 17 22
42 18 18
43 7 15
44 12 13
45 10 13
46 7 10
47 9 9
48 5 5
49 7 8
50 8 8
51 7 7
52 6 6
53 7 7
54 6 6
55 4 4
56 2 3
57 1 3
58 1 1

